InboundTrucks  = 20;
OutboundTrucks = 20;
InboundDoors   = 4;
OutboundDoors  = 4;
ReleaseTime    = [110,108,7,11,10,46,106,21,94,103,85,109,39,32,77,27,77,4,74,87];
UnloadTime     = [34,18,7,22,15,34,11,25,8,11,14,35,14,9,25,29,13,35,32,29];
LoadTime       = [16,11,16,16,15,17,21,12,13,17,6,11,12,12,10,8,6,16,8,8];
TransferTime   = [| 0,0,0,1,12,0,3,0,0,3,0,0,0,0,0,0,0,0,5,8 | 0,1,0,0,5,0,0,3,4,12,3,0,6,6,0,7,0,0,0,0 | 0,5,0,0,0,2,0,0,0,0,0,0,0,0,2,0,0,2,0,0 | 0,0,0,5,5,9,0,0,0,5,0,8,3,0,0,5,0,0,0,0 | 0,0,9,8,3,11,0,0,0,0,0,0,0,4,0,0,0,0,0,6 | 0,6,6,5,0,2,0,0,4,0,11,5,0,0,6,0,0,4,0,4 | 5,0,0,2,0,0,4,0,0,0,0,4,0,0,0,0,0,0,4,8 | 0,4,0,0,6,0,4,0,0,0,4,0,0,4,0,0,0,0,0,2 | 0,0,0,0,0,0,0,0,6,0,0,4,0,0,3,0,0,3,0,0 | 4,0,0,6,0,0,5,0,0,0,0,0,0,5,0,5,11,0,0,0 | 0,5,0,0,1,0,0,6,11,0,1,0,0,2,0,7,2,0,0,2 | 12,0,1,0,0,0,0,0,2,0,0,1,0,0,3,0,0,2,0,0 | 4,0,0,0,9,0,5,0,5,1,0,12,1,4,0,0,0,0,2,0 | 0,2,0,0,5,0,0,4,0,6,3,11,0,3,0,0,5,0,0,0 | 0,0,3,0,0,5,4,0,0,0,0,5,11,0,0,0,0,1,7,0 | 0,0,0,4,0,0,0,0,0,4,0,0,4,0,0,0,0,0,6,0 | 9,0,12,0,0,0,0,3,0,5,0,0,0,0,0,0,0,0,0,3 | 0,0,0,0,11,1,0,0,3,0,0,2,0,0,0,0,0,5,4,0 | 4,0,0,6,0,0,0,0,0,2,0,0,3,11,0,5,0,0,4,0 | 0,5,0,0,1,0,0,5,0,0,4,0,0,6,0,0,0,0,0,0 |];
